p tw 208 672
1 17
2 18
3 19
4 20
5 21
6 22
7 23
8 24
9 25
10 26
11 27
12 28
13 29
14 30
15 31
16 32
17 33
17 34
17 35
17 36
18 41
18 57
18 59
18 60
19 61
19 64
19 65
19 66
20 59
20 65
20 70
20 72
21 48
21 54
21 70
21 71
22 51
22 61
22 62
22 63
23 46
23 50
23 51
23 52
24 40
24 43
24 44
24 45
25 47
25 64
25 67
25 69
26 33
26 37
26 38
26 39
27 34
27 40
27 41
27 42
28 46
28 47
28 48
28 49
29 35
29 44
29 57
29 58
30 37
30 43
30 53
30 56
31 50
31 53
31 54
31 55
32 38
32 62
32 67
32 68
33 34
33 35
33 36
33 37
33 38
33 39
34 35
34 36
34 40
34 41
34 42
35 36
35 44
35 57
35 58
36 73
36 74
36 75
36 76
37 38
37 39
37 43
37 53
37 56
38 39
38 62
38 67
38 68
39 73
39 77
39 78
39 79
40 41
40 42
40 43
40 44
40 45
41 42
41 57
41 59
41 60
42 74
42 80
42 81
42 82
43 44
43 45
43 53
43 56
44 45
44 57
44 58
45 80
45 83
45 84
45 85
46 47
46 48
46 49
46 50
46 51
46 52
47 48
47 49
47 64
47 67
47 69
48 49
48 54
48 70
48 71
49 86
49 87
49 88
49 89
50 51
50 52
50 53
50 54
50 55
51 52
51 61
51 62
51 63
52 86
52 90
52 91
52 92
53 54
53 55
53 56
54 55
54 70
54 71
55 90
55 93
55 94
55 95
56 77
56 83
56 93
56 96
57 58
57 59
57 60
58 75
58 84
58 97
58 98
59 60
59 65
59 70
59 72
60 81
60 97
60 99
60 100
61 62
61 63
61 64
61 65
61 66
62 63
62 67
62 68
63 91
63 101
63 102
63 103
64 65
64 66
64 67
64 69
65 66
65 70
65 72
66 101
66 104
66 105
66 106
67 68
67 69
68 78
68 102
68 107
68 108
69 87
69 104
69 107
69 109
70 71
70 72
71 88
71 94
71 110
71 111
72 99
72 105
72 110
72 112
73 74
73 75
73 76
73 77
73 78
73 79
74 75
74 76
74 80
74 81
74 82
75 76
75 84
75 97
75 98
76 113
76 114
76 115
76 116
77 78
77 79
77 83
77 93
77 96
78 79
78 102
78 107
78 108
79 113
79 117
79 118
79 119
80 81
80 82
80 83
80 84
80 85
81 82
81 97
81 99
81 100
82 114
82 120
82 121
82 122
83 84
83 85
83 93
83 96
84 85
84 97
84 98
85 120
85 123
85 124
85 125
86 87
86 88
86 89
86 90
86 91
86 92
87 88
87 89
87 104
87 107
87 109
88 89
88 94
88 110
88 111
89 126
89 127
89 128
89 129
90 91
90 92
90 93
90 94
90 95
91 92
91 101
91 102
91 103
92 126
92 130
92 131
92 132
93 94
93 95
93 96
94 95
94 110
94 111
95 130
95 133
95 134
95 135
96 117
96 123
96 133
96 136
97 98
97 99
97 100
98 115
98 124
98 137
98 138
99 100
99 105
99 110
99 112
100 121
100 137
100 139
100 140
101 102
101 103
101 104
101 105
101 106
102 103
102 107
102 108
103 131
103 141
103 142
103 143
104 105
104 106
104 107
104 109
105 106
105 110
105 112
106 141
106 144
106 145
106 146
107 108
107 109
108 118
108 142
108 147
108 148
109 127
109 144
109 147
109 149
110 111
110 112
111 128
111 134
111 150
111 151
112 139
112 145
112 150
112 152
113 114
113 115
113 116
113 117
113 118
113 119
114 115
114 116
114 120
114 121
114 122
115 116
115 124
115 137
115 138
116 153
116 154
116 155
116 156
117 118
117 119
117 123
117 133
117 136
118 119
118 142
118 147
118 148
119 153
119 157
119 158
119 159
120 121
120 122
120 123
120 124
120 125
121 122
121 137
121 139
121 140
122 154
122 160
122 161
122 162
123 124
123 125
123 133
123 136
124 125
124 137
124 138
125 160
125 163
125 164
125 165
126 127
126 128
126 129
126 130
126 131
126 132
127 128
127 129
127 144
127 147
127 149
128 129
128 134
128 150
128 151
129 166
129 167
129 168
129 169
130 131
130 132
130 133
130 134
130 135
131 132
131 141
131 142
131 143
132 166
132 170
132 171
132 172
133 134
133 135
133 136
134 135
134 150
134 151
135 170
135 173
135 174
135 175
136 157
136 163
136 173
136 176
137 138
137 139
137 140
138 155
138 164
138 177
138 178
139 140
139 145
139 150
139 152
140 161
140 177
140 179
140 180
141 142
141 143
141 144
141 145
141 146
142 143
142 147
142 148
143 171
143 181
143 182
143 183
144 145
144 146
144 147
144 149
145 146
145 150
145 152
146 181
146 184
146 185
146 186
147 148
147 149
148 158
148 182
148 187
148 188
149 167
149 184
149 187
149 189
150 151
150 152
151 168
151 174
151 190
151 191
152 179
152 185
152 190
152 192
153 154
153 155
153 156
153 157
153 158
153 159
154 155
154 156
154 160
154 161
154 162
155 156
155 164
155 177
155 178
156 208
157 158
157 159
157 163
157 173
157 176
158 159
158 182
158 187
158 188
159 199
160 161
160 162
160 163
160 164
160 165
161 162
161 177
161 179
161 180
162 198
163 164
163 165
163 173
163 176
164 165
164 177
164 178
165 201
166 167
166 168
166 169
166 170
166 171
166 172
167 168
167 169
167 184
167 187
167 189
168 169
168 174
168 190
168 191
169 197
170 171
170 172
170 173
170 174
170 175
171 172
171 181
171 182
171 183
172 202
173 174
173 175
173 176
174 175
174 190
174 191
175 194
176 195
177 178
177 179
177 180
178 196
179 180
179 185
179 190
179 192
180 207
181 182
181 183
181 184
181 185
181 186
182 183
182 187
182 188
183 203
184 185
184 186
184 187
184 189
185 186
185 190
185 192
186 206
187 188
187 189
188 193
189 200
190 191
190 192
191 204
192 205
